\ This file has been generated by DOcplex
\ ENCODING=ISO-8859-1
\Problem name: random_problem.lp

Minimize
 obj: - 1332 x0 - 666 x1 - 333 x2 - 1340 x3 - 670 x4 - 335 x5 + [ 19744 x0^2
      + 19744 x0*x1 + 9872 x0*x2 - 1216 x0*x3 - 608 x0*x4 - 304 x0*x5
      + 4936 x1^2 + 4936 x1*x2 - 608 x1*x3 - 304 x1*x4 - 152 x1*x5 + 1234 x2^2
      - 304 x2*x3 - 152 x2*x4 - 76 x2*x5 + 9152 x3^2 + 9152 x3*x4 + 4576 x3*x5
      + 2288 x4^2 + 2288 x4*x5 + 572 x5^2 ]/2
Subject To
 c0: 4 x0 + 2 x1 + x2 + 4 x3 + 2 x4 + x5 = 7

Bounds
 0 <= x0 <= 1
 0 <= x1 <= 1
 0 <= x2 <= 1
 0 <= x3 <= 1
 0 <= x4 <= 1
 0 <= x5 <= 1

Binaries
 x0 x1 x2 x3 x4 x5
End
